12448.0
[1, 1, 1, 1, 1, 1, 1, 1, 1, 1, 0, 1, 1, 1, 0, 1, 0, 1, 1, 1, 1, 1, 1, 1, 1, 1, 1, 1, 1, 1]
[18, 19, 15, 24, 25, 22, 26, 21, 27, 29, 24, 23, 3, 9, 18, 11, 8, 15, 12, 7, 25, 26, 22, 20, 17, 13, 29, 6, 29, 4, 5, 2, 2, 13, 0, 22, 7, 12, 21, 11, 4, 12, 28, 23, 5, 25, 26, 17, 17, 11, 21, 0, 9, 18, 6, 6, 19, 20, 2, 29, 5, 27, 1, 29, 27, 28, 1, 27, 28, 29]